Version identifier: 12.10.0.0 | 2019-11-26 | 843d4de
CPXPARAM_WorkMem                                 28672
Tried aggregator 2 times.
MIP Presolve eliminated 11 rows and 0 columns.
MIP Presolve added 20 rows and 0 columns.
Aggregator did 30 substitutions.
Reduced MIP has 51 rows, 50 columns, and 198 nonzeros.
Reduced MIP has 50 binaries, 0 generals, 0 SOSs, and 0 indicators.
Presolve time = 0,00 sec. (0,38 ticks)
Found incumbent of value 38,000000 after 0,00 sec. (0,44 ticks)
Probing time = 0,00 sec. (0,16 ticks)
Tried aggregator 1 time.
Detecting symmetries...
Reduced MIP has 51 rows, 50 columns, and 198 nonzeros.
Reduced MIP has 50 binaries, 0 generals, 0 SOSs, and 0 indicators.
Presolve time = 0,00 sec. (0,15 ticks)
Probing time = 0,00 sec. (0,15 ticks)
Clique table members: 199.
MIP emphasis: balance optimality and feasibility.
MIP search method: dynamic search.
Parallel mode: deterministic, using up to 16 threads.
Root relaxation solution time = 0,00 sec. (0,09 ticks)

        Nodes                                         Cuts/
   Node  Left     Objective  IInf  Best Integer    Best Bound    ItCnt     Gap

*     0+    0                           38,0000        0,0000           100,00%
*     0+    0                           34,0000        0,0000           100,00%
*     0+    0                           33,0000        0,0000           100,00%
      0     0       20,0000    32       33,0000       20,0000       17   39,39%
      0     0       25,0000    32       33,0000      Cuts: 61       56   24,24%
      0     0       25,4649    32       33,0000      Cuts: 73       75   22,83%
      0     0       25,9667    32       33,0000      Cuts: 70       82   21,31%
*     0+    0                           32,0000       25,9667            18,85%
      0     0       26,0274    32       32,0000      Cuts: 53       87   18,66%
      0     0       26,0677    32       32,0000      Cuts: 12       90   18,54%
Detecting symmetries...
      0     0       26,1365    32       32,0000   ZeroHalf: 3       96   18,32%
      0     0       26,2072    32       32,0000      Cuts: 21      100   18,10%
      0     0       26,3047    32       32,0000      Cuts: 13      108   17,80%
      0     0       26,3604    32       32,0000   ZeroHalf: 4      118   17,62%
      0     0       26,3717    32       32,0000       Cuts: 5      123   17,59%
      0     0       26,3750    32       32,0000   ZeroHalf: 3      125   17,58%
      0     0       26,3773    32       32,0000       Cuts: 2      127   17,57%
      0     0        cutoff             32,0000       32,0000      127    0,00%
Elapsed time = 0,02 sec. (9,73 ticks, tree = 0,01 MB, solutions = 4)

Clique cuts applied:  3
Cover cuts applied:  4
Mixed integer rounding cuts applied:  4
Zero-half cuts applied:  7
Gomory fractional cuts applied:  4

Root node processing (before b&c):
  Real time             =    0,02 sec. (9,74 ticks)
Parallel b&c, 16 threads:
  Real time             =    0,00 sec. (0,00 ticks)
  Sync time (average)   =    0,00 sec.
  Wait time (average)   =    0,00 sec.
                          ------------
Total (root+branch&cut) =    0,02 sec. (9,74 ticks)
